(set-info :smt-lib-version 2.6)
(set-logic QF_LIA)
(set-info :category "industrial")
(set-info :status sat)
(declare-fun x0 () Int)
(declare-fun x1 () Int)
(declare-fun x10 () Int)
(declare-fun x11 () Int)
(declare-fun x12 () Int)
(declare-fun x13 () Int)
(declare-fun x14 () Int)
(declare-fun x15 () Int)
(declare-fun x16 () Int)
(declare-fun x17 () Int)
(declare-fun x18 () Int)
(declare-fun x19 () Int)
(declare-fun x2 () Int)
(declare-fun x20 () Int)
(declare-fun x21 () Int)
(declare-fun x22 () Int)
(declare-fun x23 () Int)
(declare-fun x24 () Int)
(declare-fun x25 () Int)
(declare-fun x26 () Int)
(declare-fun x27 () Int)
(declare-fun x28 () Int)
(declare-fun x29 () Int)
(declare-fun x3 () Int)
(declare-fun x30 () Int)
(declare-fun x31 () Int)
(declare-fun x32 () Int)
(declare-fun x33 () Int)
(declare-fun x34 () Int)
(declare-fun x35 () Int)
(declare-fun x36 () Int)
(declare-fun x37 () Int)
(declare-fun x38 () Int)
(declare-fun x39 () Int)
(declare-fun x4 () Int)
(declare-fun x40 () Int)
(declare-fun x41 () Int)
(declare-fun x42 () Int)
(declare-fun x43 () Int)
(declare-fun x44 () Int)
(declare-fun x5 () Int)
(declare-fun x6 () Int)
(declare-fun x7 () Int)
(declare-fun x8 () Int)
(declare-fun x9 () Int)
(assert (let ((?v_0 (* 0 x13)) (?v_5 (* 0 x14)) (?v_1 (* 0 x2)) (?v_3 (* 0 x39)) (?v_23 (* 1 x11)) (?v_122 (* 1 x19)) (?v_17 (* 1 x21)) (?v_49 (* 1 x26)) (?v_2 (* 1 x3)) (?v_18 (* 1 x30)) (?v_10 (* 0 x33)) (?v_12 (* 1 x34)) (?v_13 (* 1 x40)) (?v_51 (* 0 x42)) (?v_4 (* 0 x5)) (?v_20 (* 0 x6)) (?v_11 (* 0 x7)) (?v_76 (* 0 x10)) (?v_77 (* 1 x12)) (?v_30 (* 0 x15)) (?v_55 (* 1 x16)) (?v_7 (* 0 x19)) (?v_8 (* 0 x24)) (?v_16 (* 0 x25)) (?v_59 (* 1 x29)) (?v_66 (* 0 x30)) (?v_36 (* 0 x35)) (?v_50 (* 1 x27)) (?v_38 (* 1 x36)) (?v_69 (* 0 x37)) (?v_62 (* 1 x4)) (?v_39 (* 0 x43)) (?v_9 (* 1 x28)) (?v_72 (* 1 x44)) (?v_73 (* 1 x7)) (?v_21 (* 1 x9)) (?v_15 (* 0 x11)) (?v_141 (* 2 x12)) (?v_53 (* 0 x21)) (?v_90 (* 1 x22)) (?v_56 (* 1 x23)) (?v_108 (* 0 x29)) (?v_26 (* 1 x25)) (?v_60 (* 0 x31)) (?v_35 (* 0 x32)) (?v_48 (* 0 x38)) (?v_71 (* 0 x9)) (?v_61 (* 1 x35)) (?v_22 (* 0 x41)) (?v_139 (* 2 x14)) (?v_84 (* 1 x15)) (?v_32 (* 0 x22)) (?v_28 (* 0 x26)) (?v_68 (* 1 x31)) (?v_37 (* 0 x8)) (?v_44 (* 0 x0)) (?v_45 (* 1 x10)) (?v_112 (* 0 x16)) (?v_54 (* 1 x14)) (?v_31 (* 0 x20)) (?v_78 (* 0 x23)) (?v_80 (* 0 x3)) (?v_95 (* 0 x44)) (?v_88 (* 1 x24)) (?v_140 (* 2 x38)) (?v_52 (* 1 x41)) (?v_133 (* 1 x5)) (?v_74 (* 1 x8)) (?v_106 (* 1 x0)) (?v_46 (* 0 x17)) (?v_58 (* 0 x28)) (?v_67 (* 0 x34)) (?v_101 (* 0 x40)) (?v_64 (* 0 x1)) (?v_118 (* 0 x18)) (?v_70 (* 1 x39)) (?v_110 (* 0 x12)) (?v_115 (* 1 x13)) (?v_85 (* 1 x17)) (?v_120 (* 1 x20)) (?v_86 (* 1 x33)) (?v_124 (* 1 x37)) (?v_109 (* 1 x42)) (?v_92 (* 0 x36)) (?v_113 (* 0 x4)) (?v_96 (* 1 x6)) (?v_107 (* 0 x27)) (?v_143 (* 1 x1)) (?v_135 (* 1 x43)) (?v_123 (* 1 x38)) (?v_132 (* 2 x17)) (?v_144 (* 1 x2)) (?v_146 (* 2 x41)) (?v_147 (* 2 x8)) (?v_137 (* 1 x18)) (?v_145 (* 1 x32)) (?v_126 (* (- 2) x35)) (?v_130 (* (- 1) x10)) (?v_42 (* (- 1) x23)) (?v_25 (* (- 2) x32)) (?v_33 (* (- 1) x24)) (?v_94 (* (- 1) x9)) (?v_102 (* (- 1) x11)) (?v_6 (* (- 1) x18)) (?v_29 (* (- 1) x42)) (?v_27 (* (- 1) x6)) (?v_14 (* (- 1) x1)) (?v_138 (* (- 1) x39)) (?v_57 (* (- 1) x26)) (?v_93 (* (- 1) x43)) (?v_19 (* (- 1) x44)) (?v_63 (* (- 1) x0)) (?v_24 (* (- 1) x17)) (?v_111 (* (- 1) x19)) (?v_103 (* (- 1) x2)) (?v_41 (* (- 1) x20)) (?v_34 (* (- 1) x27)) (?v_79 (* (- 1) x28)) (?v_65 (* (- 1) x29)) (?v_43 (* (- 1) x4)) (?v_97 (* (- 2) x13)) (?v_47 (* (- 1) x30)) (?v_105 (* (- 1) x34)) (?v_117 (* (- 1) x36)) (?v_40 (* (- 1) x12)) (?v_89 (* (- 1) x16)) (?v_75 (* (- 1) x21)) (?v_99 (* (- 1) x3)) (?v_104 (* (- 1) x31)) (?v_81 (* (- 1) x37)) (?v_82 (* (- 1) x38)) (?v_83 (* (- 1) x40)) (?v_87 (* (- 1) x41)) (?v_98 (* (- 1) x22)) (?v_91 (* (- 1) x32)) (?v_114 (* (- 1) x5)) (?v_100 (* (- 1) x7)) (?v_127 (* (- 2) x9)) (?v_116 (* (- 1) x35)) (?v_119 (* (- 1) x8)) (?v_125 (* (- 1) x13)) (?v_128 (* (- 1) x25)) (?v_131 (* (- 1) x14)) (?v_121 (* (- 2) x33)) (?v_129 (* (- 2) x1)) (?v_134 (* (- 1) x15)) (?v_136 (* (- 1) x33)) (?v_142 (* (- 2) x27))) (and (<= (+ ?v_126 (+ ?v_130 (+ ?v_0 (+ ?v_42 (+ ?v_5 (+ ?v_1 (+ ?v_3 (+ ?v_23 (+ ?v_122 (+ ?v_17 (+ ?v_49 (+ ?v_2 (+ ?v_18 (+ ?v_25 (+ (* (- 2) x36) (+ ?v_10 (+ ?v_12 (+ ?v_13 (+ (* (- 2) x41) (+ ?v_33 (+ ?v_94 (+ ?v_51 (+ ?v_4 (+ ?v_20 (+ ?v_11 (* 3 x43)))))))))))))))))))))))))) 0) (<= (+ ?v_76 (+ ?v_77 (+ ?v_0 (+ (* (- 2) x31) (+ ?v_102 (+ ?v_30 (+ ?v_55 (+ ?v_6 (+ ?v_7 (+ ?v_1 (+ ?v_29 (+ ?v_27 (+ ?v_8 (+ ?v_16 (+ ?v_59 (+ ?v_2 (+ ?v_66 (+ ?v_36 (+ ?v_3 (+ ?v_50 (+ ?v_38 (+ ?v_69 (+ ?v_62 (+ ?v_39 (+ ?v_4 (+ ?v_9 (+ ?v_72 (+ ?v_73 ?v_21)))))))))))))))))))))))))))) 1) (<= (+ ?v_14 (+ ?v_15 (+ ?v_141 (+ ?v_0 (+ ?v_5 (+ (* (- 2) x17) (+ ?v_6 (+ ?v_138 (+ ?v_7 (+ ?v_53 (+ ?v_90 (+ ?v_56 (+ ?v_57 (+ ?v_93 (+ ?v_19 (+ ?v_8 (+ ?v_108 (+ ?v_26 (+ ?v_60 (+ ?v_9 (+ ?v_35 (+ ?v_10 (+ ?v_48 (+ ?v_11 (+ ?v_71 (+ ?v_12 (+ ?v_61 (+ ?v_13 ?v_22)))))))))))))))))))))))))))) (- 1)) (<= (+ ?v_63 (+ ?v_14 (+ ?v_15 (+ ?v_139 (+ ?v_24 (+ ?v_84 (+ ?v_6 (+ ?v_111 (+ ?v_103 (+ ?v_41 (+ ?v_32 (+ ?v_16 (+ ?v_17 (+ ?v_34 (+ ?v_28 (+ ?v_79 (+ ?v_65 (+ ?v_43 (+ ?v_18 (+ ?v_68 (+ ?v_19 (+ ?v_10 (+ ?v_20 (+ ?v_11 (+ ?v_37 (+ ?v_13 (+ ?v_4 (+ ?v_21 (+ (* 2 x37) ?v_22))))))))))))))))))))))))))))) 0) (<= (+ ?v_97 (+ ?v_44 (+ ?v_45 (+ ?v_112 (+ ?v_23 (+ ?v_54 (+ ?v_24 (+ ?v_25 (+ ?v_6 (+ ?v_31 (+ ?v_78 (+ ?v_26 (+ ?v_80 (+ ?v_47 (+ ?v_105 (+ ?v_117 (+ ?v_27 (+ ?v_28 (+ ?v_10 (+ ?v_29 (+ ?v_95 (+ ?v_88 (+ ?v_140 (+ (* 2 x4) (+ ?v_52 (+ ?v_133 ?v_74)))))))))))))))))))))))))) (- 1)) (<= (+ (* (- 3) x25) (+ ?v_40 (+ (* (- 2) x2) (+ ?v_89 (+ ?v_75 (+ ?v_99 (+ ?v_5 (+ ?v_106 (+ ?v_30 (+ ?v_46 (+ ?v_6 (+ ?v_7 (+ ?v_31 (+ ?v_32 (+ ?v_33 (+ ?v_34 (+ ?v_58 (+ ?v_35 (+ ?v_10 (+ ?v_67 (+ ?v_36 (+ ?v_3 (+ ?v_11 (+ ?v_37 (+ ?v_38 (+ ?v_101 (+ ?v_39 (+ ?v_4 ?v_20)))))))))))))))))))))))))))) 0) (<= (+ ?v_40 (+ ?v_41 (+ ?v_42 (+ ?v_43 (+ ?v_44 (+ ?v_64 (+ ?v_45 (+ ?v_15 (+ ?v_0 (+ (* (- 2) x44) (+ ?v_30 (+ ?v_46 (+ ?v_33 (+ ?v_47 (+ ?v_104 (+ ?v_81 (+ ?v_118 (+ ?v_48 (+ ?v_49 (+ ?v_50 (+ ?v_35 (+ ?v_70 (+ ?v_51 (+ ?v_39 (+ ?v_20 (+ ?v_37 ?v_52)))))))))))))))))))))))))) 0) (<= (+ ?v_110 (+ ?v_82 (+ ?v_115 (+ ?v_7 (+ ?v_53 (+ ?v_32 (+ ?v_54 (+ ?v_55 (+ ?v_85 (+ ?v_120 (+ ?v_56 (+ ?v_33 (+ ?v_57 (+ ?v_58 (+ ?v_59 (+ ?v_60 (+ ?v_35 (+ ?v_86 (+ ?v_61 (+ ?v_124 (+ ?v_62 (+ ?v_22 (+ ?v_20 (+ ?v_11 ?v_109)))))))))))))))))))))))) (- 1)) (<= (+ (* (- 2) x14) (+ ?v_63 (+ ?v_64 (+ ?v_0 (+ ?v_45 (+ ?v_30 (+ ?v_7 (+ ?v_1 (+ ?v_33 (+ ?v_65 (+ ?v_66 (+ ?v_67 (+ ?v_68 (+ ?v_92 (+ ?v_83 (+ ?v_49 (+ ?v_69 (+ ?v_70 (+ (* 2 x28) (+ ?v_87 (+ ?v_35 (+ ?v_51 (+ ?v_39 (+ ?v_71 (+ ?v_72 (+ ?v_73 ?v_74)))))))))))))))))))))))))) 0) (<= (+ ?v_75 (+ ?v_98 (+ ?v_44 (+ ?v_76 (+ ?v_77 (+ ?v_7 (+ ?v_78 (+ ?v_79 (+ ?v_80 (+ ?v_47 (+ ?v_36 (+ ?v_81 (+ ?v_82 (+ ?v_113 (+ ?v_83 (+ ?v_84 (+ ?v_85 (+ ?v_50 (+ ?v_91 (+ ?v_86 (+ ?v_12 (+ ?v_70 (+ ?v_87 (+ ?v_114 (+ ?v_39 (+ ?v_37 (+ ?v_71 (+ ?v_88 (+ ?v_72 (+ ?v_96 (* 2 x42))))))))))))))))))))))))))))))) 0) (<= (+ ?v_64 (+ (* (- 2) x23) (+ ?v_89 (+ ?v_82 (+ ?v_44 (+ ?v_15 (+ (* 2 x13) (+ ?v_5 (+ ?v_1 (+ ?v_31 (+ ?v_53 (+ ?v_90 (+ ?v_16 (+ ?v_107 (+ ?v_59 (+ ?v_66 (+ ?v_68 (+ ?v_91 (+ ?v_12 (+ ?v_92 (+ ?v_87 (+ ?v_93 (+ ?v_100 (+ ?v_94 (+ ?v_51 (+ ?v_95 (+ ?v_37 ?v_96))))))))))))))))))))))))))) (- 1)) (<= (+ ?v_97 (+ ?v_63 (+ ?v_143 (+ ?v_41 (+ ?v_98 (+ ?v_99 (+ ?v_100 (+ ?v_94 (+ ?v_76 (+ ?v_23 (+ ?v_30 (+ ?v_55 (+ ?v_46 (+ ?v_16 (+ ?v_17 (+ ?v_59 (+ ?v_18 (+ (* 2 x2) (+ ?v_101 (+ ?v_20 (+ ?v_37 (+ ?v_86 (+ ?v_61 (+ ?v_38 (+ ?v_70 (+ ?v_62 ?v_135)))))))))))))))))))))))))) 0) (<= (+ ?v_127 (+ ?v_76 (+ ?v_102 (+ ?v_103 (+ ?v_41 (+ ?v_90 (+ ?v_26 (+ ?v_104 (+ ?v_105 (+ ?v_116 (+ ?v_53 (+ ?v_106 (+ ?v_55 (+ ?v_56 (+ ?v_19 (+ ?v_100 (+ ?v_119 (+ ?v_30 (+ ?v_28 (+ ?v_107 (+ ?v_58 (+ ?v_108 (+ ?v_66 (+ ?v_92 (+ ?v_69 (+ ?v_123 (+ ?v_13 (+ ?v_39 (+ ?v_4 ?v_109))))))))))))))))))))))))))))) 0) (<= (+ ?v_76 (+ ?v_102 (+ ?v_110 (+ ?v_125 (+ ?v_111 (+ ?v_98 (+ ?v_42 (+ ?v_31 (+ ?v_26 (+ ?v_47 (+ ?v_94 (+ ?v_112 (+ ?v_106 (+ ?v_24 (+ ?v_17 (+ ?v_28 (+ ?v_107 (+ ?v_67 (+ ?v_2 (+ ?v_60 (+ ?v_92 (+ ?v_113 (+ ?v_70 (+ ?v_13 (+ (* 2 x33) (+ ?v_93 (+ ?v_114 (+ ?v_30 (+ ?v_69 ?v_51))))))))))))))))))))))))))))) 0) (<= (+ ?v_75 (+ ?v_128 (+ ?v_15 (+ ?v_77 (+ ?v_115 (+ ?v_112 (+ ?v_54 (+ ?v_34 (+ ?v_116 (+ ?v_117 (+ ?v_46 (+ ?v_118 (+ ?v_7 (+ ?v_32 (+ ?v_8 (+ ?v_28 (+ ?v_2 (+ ?v_60 (+ ?v_67 (+ ?v_69 (+ ?v_70 (+ ?v_22 (+ ?v_39 (+ ?v_95 (+ ?v_11 (+ ?v_37 (+ ?v_109 ?v_96))))))))))))))))))))))))))) 0) (<= (+ ?v_64 (+ ?v_76 (+ ?v_115 (+ ?v_131 (+ ?v_104 (+ ?v_119 (+ ?v_112 (+ ?v_7 (+ ?v_1 (+ ?v_32 (+ ?v_16 (+ ?v_108 (+ ?v_67 (+ ?v_3 (+ ?v_113 (+ ?v_11 (+ ?v_120 (+ ?v_17 (+ ?v_56 (+ ?v_66 (+ ?v_23 (+ ?v_21 (+ (* 2 x0) (+ ?v_34 (+ ?v_121 (+ ?v_20 (+ ?v_84 (+ ?v_132 (+ ?v_118 (+ ?v_8 (+ ?v_4 ?v_52))))))))))))))))))))))))))))))) 1) (<= (+ ?v_129 (+ ?v_0 (+ ?v_121 (+ ?v_134 (+ ?v_89 (+ ?v_24 (+ ?v_32 (+ ?v_42 (+ ?v_122 (+ ?v_31 (+ ?v_79 (+ ?v_47 (+ ?v_118 (+ ?v_8 (+ ?v_26 (+ ?v_50 (+ (* 2 x26) (+ ?v_35 (+ ?v_67 (+ ?v_36 (+ ?v_123 (+ ?v_39 (+ ?v_95 (+ ?v_20 (+ ?v_11 (+ ?v_37 (+ ?v_124 (+ ?v_51 ?v_21)))))))))))))))))))))))))))) 0) (<= (+ (* 2 x1) (+ ?v_125 (+ ?v_126 (+ ?v_127 (+ ?v_103 (+ ?v_75 (+ ?v_98 (+ ?v_104 (+ ?v_119 (+ ?v_15 (+ ?v_5 (+ ?v_112 (+ ?v_136 (+ ?v_46 (+ ?v_78 (+ ?v_120 (+ ?v_28 (+ ?v_29 (+ ?v_27 (+ ?v_118 (+ ?v_58 (+ ?v_59 (+ ?v_80 (+ ?v_35 (+ ?v_48 (+ ?v_39 (+ ?v_95 (+ ?v_4 (+ ?v_124 ?v_73))))))))))))))))))))))))))))) (- 1)) (<= (+ ?v_14 (+ ?v_102 (+ ?v_110 (+ ?v_0 (+ ?v_42 (+ ?v_128 (+ ?v_116 (+ ?v_5 (+ ?v_24 (+ ?v_118 (+ ?v_122 (+ ?v_144 (+ ?v_90 (+ ?v_107 (+ ?v_108 (+ ?v_66 (+ ?v_10 (+ ?v_3 (+ ?v_38 (+ ?v_123 (+ (* 3 x4) (+ ?v_101 (+ ?v_39 (+ ?v_4 (+ ?v_20 (+ ?v_71 (+ ?v_109 (+ ?v_73 ?v_146)))))))))))))))))))))))))))) 0) (<= (+ ?v_129 (+ ?v_130 (+ ?v_110 (+ ?v_125 (+ (* (- 2) x16) (+ ?v_7 (+ ?v_41 (+ ?v_78 (+ ?v_108 (+ (* (- 2) x30) (+ ?v_23 (+ ?v_91 (+ ?v_83 (+ ?v_87 (+ ?v_118 (+ ?v_1 (+ ?v_28 (+ ?v_50 (+ ?v_58 (+ ?v_80 (+ ?v_60 (+ ?v_70 (+ (* 3 x37) (+ ?v_51 (+ ?v_20 ?v_88))))))))))))))))))))))))) (- 1)) (<= (+ ?v_64 (+ ?v_110 (+ ?v_125 (+ ?v_126 (+ ?v_131 (+ ?v_23 (+ ?v_30 (+ ?v_112 (+ ?v_132 (+ ?v_91 (+ ?v_81 (+ ?v_118 (+ ?v_1 (+ ?v_31 (+ ?v_53 (+ ?v_78 (+ ?v_8 (+ ?v_108 (+ ?v_60 (+ ?v_67 (+ ?v_48 (+ ?v_3 (+ ?v_113 (+ ?v_95 (+ ?v_11 (+ ?v_49 (+ ?v_86 (+ ?v_133 ?v_21)))))))))))))))))))))))))))) (- 1)) (<= (+ ?v_64 (+ ?v_130 (+ ?v_125 (+ ?v_89 (+ ?v_23 (+ ?v_77 (+ ?v_54 (+ ?v_24 (+ ?v_116 (+ ?v_1 (+ ?v_78 (+ ?v_17 (+ (* 2 x22) (+ ?v_19 (+ (* (- 3) x5) (+ ?v_30 (+ ?v_8 (+ ?v_16 (+ ?v_28 (+ ?v_58 (+ ?v_80 (+ ?v_48 (+ ?v_71 (+ ?v_12 (+ ?v_39 (+ ?v_124 (+ ?v_70 (+ ?v_22 ?v_96)))))))))))))))))))))))))))) 0) (<= (+ ?v_76 (+ ?v_110 (+ ?v_0 (+ ?v_134 (+ ?v_89 (+ ?v_7 (+ ?v_103 (+ ?v_75 (+ ?v_32 (+ ?v_78 (+ ?v_57 (+ ?v_108 (+ ?v_94 (+ ?v_80 (+ ?v_85 (+ ?v_8 (+ (* 3 x25) (+ ?v_18 (+ ?v_35 (+ ?v_10 (+ ?v_67 (+ ?v_48 (+ ?v_70 (+ ?v_51 (+ ?v_4 (+ ?v_52 (+ ?v_135 (+ ?v_72 (+ ?v_96 ?v_147))))))))))))))))))))))))))))) 0) (<= (+ ?v_128 (+ ?v_44 (+ (* 2 x10) (+ ?v_15 (+ ?v_110 (+ ?v_0 (+ ?v_112 (+ ?v_7 (+ ?v_1 (+ ?v_31 (+ ?v_17 (+ ?v_57 (+ ?v_136 (+ ?v_30 (+ ?v_87 (+ ?v_29 (+ ?v_114 (+ ?v_8 (+ ?v_50 (+ ?v_58 (+ ?v_59 (+ ?v_60 (+ ?v_18 (+ ?v_61 (+ ?v_69 (+ ?v_3 (+ ?v_39 (+ ?v_71 (+ ?v_96 (+ ?v_73 (+ ?v_74 (* 2 x18)))))))))))))))))))))))))))))))) 0) (<= (+ ?v_130 (+ ?v_102 (+ ?v_44 (+ ?v_5 (+ ?v_134 (+ ?v_103 (+ ?v_112 (+ ?v_136 (+ ?v_46 (+ ?v_31 (+ ?v_53 (+ ?v_114 (+ ?v_8 (+ ?v_107 (+ ?v_58 (+ ?v_66 (+ ?v_60 (+ ?v_69 (+ ?v_101 (+ ?v_39 (+ ?v_20 (+ ?v_137 (+ ?v_49 (+ ?v_145 (+ ?v_38 (+ ?v_52 (+ ?v_109 ?v_72))))))))))))))))))))))))))) 0) (<= (+ ?v_40 (+ ?v_64 (+ (* (- 2) x21) (+ ?v_15 (+ ?v_55 (+ ?v_142 (+ ?v_24 (+ ?v_7 (+ ?v_41 (+ ?v_78 (+ ?v_16 (+ ?v_57 (+ ?v_43 (+ ?v_83 (+ ?v_29 (+ ?v_8 (+ ?v_58 (+ ?v_60 (+ ?v_10 (+ ?v_48 (+ ?v_70 (+ ?v_20 (+ ?v_11 (+ ?v_37 (+ ?v_71 (+ ?v_137 (+ ?v_135 (+ (* 2 x44) ?v_133)))))))))))))))))))))))))))) 0) (<= (+ ?v_138 (+ ?v_44 (+ ?v_0 (+ ?v_1 (+ ?v_66 (+ ?v_60 (+ ?v_55 (+ ?v_139 (+ ?v_35 (+ ?v_10 (+ ?v_69 (+ ?v_101 (+ ?v_4 (+ ?v_20 (+ ?v_11 (+ ?v_71 (+ ?v_137 (+ ?v_122 (+ ?v_17 (+ ?v_26 (+ ?v_49 (+ ?v_50 (+ ?v_12 (+ ?v_38 (+ ?v_62 (+ ?v_140 (+ ?v_52 (+ ?v_109 ?v_135)))))))))))))))))))))))))))) 1) (<= (+ ?v_64 (+ ?v_130 (+ ?v_141 (+ ?v_0 (+ ?v_142 (+ ?v_134 (+ ?v_112 (+ ?v_24 (+ ?v_120 (+ ?v_53 (+ ?v_108 (+ ?v_2 (+ ?v_47 (+ ?v_10 (+ ?v_12 (+ ?v_36 (+ ?v_92 (+ ?v_81 (+ ?v_83 (+ ?v_35 (+ ?v_48 (+ ?v_3 (+ ?v_39 (+ ?v_11 (+ ?v_88 (+ ?v_52 (+ ?v_133 (+ ?v_96 ?v_74)))))))))))))))))))))))))))) (- 1)) (<= (+ ?v_128 (+ ?v_143 (+ ?v_45 (+ ?v_5 (+ ?v_112 (+ ?v_32 (+ ?v_78 (+ ?v_122 (+ ?v_144 (+ ?v_17 (+ ?v_57 (+ ?v_66 (+ ?v_68 (+ ?v_136 (+ ?v_43 (+ ?v_67 (+ ?v_83 (+ ?v_19 (+ ?v_46 (+ ?v_4 (+ ?v_11 (+ ?v_137 (+ ?v_88 (+ ?v_145 (+ ?v_146 ?v_147))))))))))))))))))))))))) 0) (<= (+ (* (- 3) x1) (+ ?v_44 (+ ?v_76 (+ (* (- 2) x5) (+ ?v_134 (+ ?v_24 (+ ?v_98 (+ ?v_42 (+ ?v_7 (+ ?v_16 (+ ?v_104 (+ ?v_82 (+ ?v_93 (+ ?v_100 (+ ?v_58 (+ ?v_108 (+ ?v_10 (+ ?v_36 (+ ?v_69 (+ ?v_101 (+ ?v_137 (+ ?v_2 (+ ?v_18 (+ ?v_70 (+ ?v_52 (+ ?v_72 (+ ?v_96 (* 3 x9)))))))))))))))))))))))))))) 0))))
(check-sat)
(exit)
